
******************************************************************************
This program contains Ipopt, a library for large-scale nonlinear optimization.
 Ipopt is released as open source code under the Eclipse Public License (EPL).
         For more information visit http://projects.coin-or.org/Ipopt

This version of Ipopt was compiled from source code available at
    https://github.com/IDAES/Ipopt as part of the Institute for the Design of
    Advanced Energy Systems Process Systems Engineering Framework (IDAES PSE
    Framework) Copyright (c) 2018-2019. See https://github.com/IDAES/idaes-pse.

This version of Ipopt was compiled using HSL, a collection of Fortran codes
    for large-scale scientific computation.  All technical papers, sales and
    publicity material resulting from use of the HSL codes within IPOPT must
    contain the following acknowledgement:
        HSL, a collection of Fortran codes for large-scale scientific
        computation. See http://www.hsl.rl.ac.uk.
******************************************************************************

This is Ipopt version 3.13.2, running with linear solver ma27.

Number of nonzeros in equality constraint Jacobian...:      808
Number of nonzeros in inequality constraint Jacobian.:        0
Number of nonzeros in Lagrangian Hessian.............:      702

Total number of variables............................:      351
                     variables with only lower bounds:      108
                variables with lower and upper bounds:      189
                     variables with only upper bounds:        0
Total number of equality constraints.................:      350
Total number of inequality constraints...............:        0
        inequality constraints with only lower bounds:        0
   inequality constraints with lower and upper bounds:        0
        inequality constraints with only upper bounds:        0

iter    objective    inf_pr   inf_du lg(mu)  ||d||  lg(rg) alpha_du alpha_pr  ls
   0  0.0000000e+00 9.87e-01 1.78e-15  -1.0 0.00e+00    -  0.00e+00 0.00e+00   0
   1  7.5126115e-01 5.16e-01 7.53e+03  -1.0 6.29e+04    -  9.00e-01 9.46e-01h  1
   2  8.8938578e-01 1.58e-02 2.94e+02  -1.0 1.01e+04    -  1.38e-01 9.90e-01h  1
   3  8.9059248e-01 5.42e-04 2.39e+02  -1.0 1.63e+02    -  9.90e-01 9.90e-01h  1
   4  8.8986260e-01 1.61e-04 9.88e+02  -1.0 6.76e+02    -  9.89e-01 9.90e-01h  1
   5  8.8985347e-01 1.61e-04 1.80e+08  -1.0 3.68e+04    -  9.69e-01 2.42e-04h 13
   6  8.8981504e-01 1.61e-04 3.63e+08  -1.0 9.75e+03    -  9.90e-01 3.87e-03h  9
   7  8.8908187e-01 3.37e-04 5.00e+08  -1.0 1.04e+05    -  7.57e-01 7.73e-03f  8
   8  8.8795965e-01 7.26e-05 3.68e+06  -1.0 4.44e+03    -  9.44e-01 9.90e-01H  1
   9  8.8796140e-01 7.26e-05 1.88e+10  -1.0 5.01e+04    -  1.00e+00 1.21e-04h 14
iter    objective    inf_pr   inf_du lg(mu)  ||d||  lg(rg) alpha_du alpha_pr  ls
  10  8.8796956e-01 7.24e-05 3.75e+10  -1.0 7.23e+03    -  1.00e+00 3.87e-03h  9
  11  8.8797101e-01 7.24e-05 5.63e+10  -1.0 4.04e+04    -  1.00e+00 1.21e-04h 14
  12  8.8798134e-01 7.24e-05 7.49e+10  -1.0 8.87e+03    -  1.00e+00 3.87e-03h  9
  13  8.8798388e-01 7.23e-05 9.39e+10  -1.0 3.42e+04    -  1.00e+00 2.42e-04h 13
  14  8.8799010e-01 7.23e-05 1.13e+11  -1.0 1.04e+04    -  1.00e+00 1.93e-03h 10
  15  8.8799237e-01 7.23e-05 1.32e+11  -1.0 2.99e+04    -  1.00e+00 2.42e-04h 13
  16  8.8799957e-01 7.22e-05 1.50e+11  -1.0 1.17e+04    -  1.00e+00 1.93e-03h 10
  17  8.8800376e-01 7.22e-05 1.69e+11  -1.0 2.69e+04    -  1.00e+00 4.83e-04h 12
  18  8.8801192e-01 7.22e-05 1.88e+11  -1.0 1.29e+04    -  1.00e+00 1.93e-03h 10
  19  9.7260179e-01 2.38e+00 2.07e+09  -1.0 2.47e+04    -  1.00e+00 9.90e-01w  1
iter    objective    inf_pr   inf_du lg(mu)  ||d||  lg(rg) alpha_du alpha_pr  ls
  20  9.3797835e-01 4.96e-01 1.91e+10  -1.0 5.92e+03    -  1.00e+00 9.90e-01w  1
In iteration 20, 27 Slacks too small, adjusting variable bounds
  21  9.3716108e-01 4.04e-02 1.91e+12  -1.0 1.54e+02    -  1.00e+00 9.90e-01w  1
  22  8.8801989e-01 7.22e-05 2.07e+11  -1.0 3.46e+01    -  1.00e+00 9.67e-04h 10
  23  8.8802911e-01 7.22e-05 2.23e+11  -1.0 1.39e+04    -  1.00e+00 1.95e-03h 10
  24  8.8803299e-01 7.22e-05 2.40e+11  -1.0 2.31e+04    -  1.00e+00 4.88e-04h 12
  25  8.8803800e-01 7.22e-05 2.57e+11  -1.0 1.48e+04    -  1.00e+00 9.76e-04h 11
  26  8.8804175e-01 7.21e-05 2.73e+11  -1.0 2.19e+04    -  1.00e+00 4.88e-04h 12
  27  8.8804710e-01 7.21e-05 2.90e+11  -1.0 1.55e+04    -  1.00e+00 9.76e-04h 11
  28  8.8805075e-01 7.21e-05 3.06e+11  -1.0 2.09e+04    -  1.00e+00 4.88e-04h 12
  29  8.8805641e-01 7.21e-05 3.22e+11  -1.0 1.61e+04    -  1.00e+00 9.76e-04h 11
iter    objective    inf_pr   inf_du lg(mu)  ||d||  lg(rg) alpha_du alpha_pr  ls
  30  8.8806000e-01 7.20e-05 3.38e+11  -1.0 2.02e+04    -  1.00e+00 4.88e-04h 12
  31  8.8806592e-01 7.20e-05 3.53e+11  -1.0 1.65e+04    -  1.00e+00 9.76e-04h 11
  32  9.4476527e-01 2.53e-02 3.69e+08  -1.0 1.97e+04    -  1.00e+00 9.99e-01w  1
  33  9.4106676e-01 3.08e-04 1.49e-01  -1.0 5.96e+02    -  1.00e+00 1.00e+00w  1
  34  8.9624663e-01 1.12e-02 1.72e+11  -5.7 1.24e+04    -  9.12e-01 1.00e+00f  1
  35  8.8895464e-01 6.97e-04 9.11e+08  -5.7 5.10e+03    -  9.95e-01 1.00e+00h  1
  36  8.8786991e-01 8.04e-04 1.34e-01  -5.7 2.26e+03    -  1.00e+00 1.00e+00h  1
  37  8.8779861e-01 5.64e-05 8.03e-03  -5.7 6.63e+02    -  1.00e+00 1.00e+00h  1
  38  8.8779765e-01 8.92e-07 1.28e-04  -5.7 7.54e+01    -  1.00e+00 1.00e+00h  1
  39  8.8779765e-01 1.00e-09 1.32e-07  -8.6 2.38e+00    -  1.00e+00 1.00e+00h  1

Number of Iterations....: 39

                                   (scaled)                 (unscaled)
Objective...............:   8.8779764604421063e-01    8.8779764604421063e-01
Dual infeasibility......:   1.3238604879006743e-07    1.3238604879006743e-07
Constraint violation....:   8.9234001775986362e-10    9.9989322377425083e-10
Complementarity.........:   3.8897791477806541e-09    3.8897791477806541e-09
Overall NLP error.......:   3.8618414972480934e-09    1.3238604879006743e-07


Number of objective function evaluations             = 333
Number of objective gradient evaluations             = 40
Number of equality constraint evaluations            = 333
Number of inequality constraint evaluations          = 0
Number of equality constraint Jacobian evaluations   = 40
Number of inequality constraint Jacobian evaluations = 0
Number of Lagrangian Hessian evaluations             = 39
Total CPU secs in IPOPT (w/o function evaluations)   =      0.051
Total CPU secs in NLP function evaluations           =      1.668

EXIT: Optimal Solution Found.
